NAME          ClpDefau
ROWS
 N  OBJROW
 L  R_80_0
 L  R_80_1
 L  R_80_2
 L  R_80_3
 L  R_80_4
 L  R_80_5
 L  R_80_6
 L  R_80_7
 L  R_80_8
 L  R_80_9
 L  R_80_10
 L  R_80_11
 L  R_80_12
 L  R_80_13
 L  R_80_14
 L  R_80_15
COLUMNS
    x_0       OBJROW     -8.           R_80_15   3.          
    x_1       OBJROW     -12.          R_80_1    6.          
    x_1       R_80_2    9.             R_80_6    8.          
    x_1       R_80_15   7.          
    x_2       OBJROW     -11.       
    x_3       OBJROW     -47.          R_80_2    10.         
    x_4       OBJROW     -22.          R_80_1    6.          
    x_4       R_80_4    2.             R_80_5    1.          
    x_4       R_80_9    9.             R_80_10   5.          
    x_5       OBJROW     -95.          R_80_0    6.          
    x_5       R_80_3    2.             R_80_5    1.          
    x_5       R_80_7    3.             R_80_10   10.         
    x_5       R_80_11   4.             R_80_12   1.          
    x_5       R_80_13   10.         
    x_6       OBJROW     -86.          R_80_5    5.          
    x_6       R_80_13   8.          
    x_7       OBJROW     -40.          R_80_13   3.          
    x_7       R_80_14   4.          
    x_8       OBJROW     -33.          R_80_13   1.          
    x_8       R_80_15   9.          
    x_9       OBJROW     -78.          R_80_2    3.          
    x_9       R_80_4    1.          
    x_10      OBJROW     -28.          R_80_0    7.          
    x_10      R_80_6    2.             R_80_11   7.          
    x_10      R_80_12   5.             R_80_13   1.          
    x_10      R_80_15   8.          
    x_11      OBJROW     -78.          R_80_3    1.          
    x_11      R_80_6    8.             R_80_7    10.         
    x_11      R_80_10   6.             R_80_12   2.          
    x_11      R_80_13   10.         
    x_12      OBJROW     -5.           R_80_2    8.          
    x_13      OBJROW     -75.          R_80_9    6.          
    x_13      R_80_10   9.             R_80_11   7.          
    x_14      OBJROW     -88.          R_80_1    5.          
    x_14      R_80_6    5.             R_80_7    9.          
    x_14      R_80_14   3.          
    x_15      OBJROW     -21.          R_80_5    8.          
    x_15      R_80_11   5.          
RHS
    RHS       R_80_0    19.            R_80_1    15.         
    RHS       R_80_2    21.            R_80_3    14.         
    RHS       R_80_4    6.             R_80_5    11.         
    RHS       R_80_6    21.            R_80_7    10.         
    RHS       R_80_8    16.            R_80_9    16.         
    RHS       R_80_10   4.             R_80_11   14.         
    RHS       R_80_12   18.            R_80_13   20.         
    RHS       R_80_14   18.            R_80_15   9.          
BOUNDS
 UI BOUND     x_0       100.        
 UI BOUND     x_1       100.        
 UI BOUND     x_2       100.        
 UI BOUND     x_3       100.        
 UI BOUND     x_4       100.        
 UI BOUND     x_5       100.        
 UI BOUND     x_6       100.        
 UI BOUND     x_7       100.        
 UI BOUND     x_8       100.        
 UI BOUND     x_9       100.        
 UI BOUND     x_10      100.        
 UI BOUND     x_11      100.        
 UI BOUND     x_12      100.        
 UI BOUND     x_13      100.        
 UI BOUND     x_14      100.        
 UI BOUND     x_15      100.        
ENDATA
